65	65	65	14	14	14	65	65	65	
65	65	14	14	14	14	14	139	139	
65	14	14	14	14	14	14	14	139	
65	130	139	130	130	130	130	139	65	
65	139	97	65	97	65	97	139	65	
65	139	14	97	3	97	14	139	65	
65	139	97	139	139	139	112	139	65	
65	139	139	139	3	139	139	139	65	
3	14	139	139	139	139	139	14	3	
3	14	14	139	139	139	14	14	3	
3	14	14	14	14	14	14	14	3	
3	14	14	14	14	14	14	14	3	
139	65	65	65	17	65	65	65	139	
139	14	14	14	14	14	14	14	139	
65	14	14	14	14	14	14	14	65	
65	65	3	3	65	3	3	65	65	
65	65	65	65	65	65	65	65	65	
65	65	65	65	65	65	65	65	65	
